p cnf 612 452
c p distribution  0.875 0.125
c p distribution  0.875 0.125
c p distribution  0.875 0.125
c p distribution  0.875 0.125
c p distribution  0.875 0.125
c p distribution  0.875 0.125
c p distribution  0.875 0.125
c p distribution  0.875 0.125
c p distribution  0.875 0.125
c p distribution  0.875 0.125
c p distribution  0.875 0.125
c p distribution  0.875 0.125
c p distribution  0.875 0.125
c p distribution  0.875 0.125
c p distribution  0.875 0.125
c p distribution  0.875 0.125
c p distribution  0.875 0.125
c p distribution  0.875 0.125
c p distribution  0.875 0.125
c p distribution  0.875 0.125
c p distribution  0.875 0.125
c p distribution  0.875 0.125
c p distribution  0.875 0.125
c p distribution  0.875 0.125
c p distribution  0.875 0.125
c p distribution  0.875 0.125
c p distribution  0.875 0.125
c p distribution  0.875 0.125
c p distribution  0.875 0.125
c p distribution  0.875 0.125
c p distribution  0.875 0.125
c p distribution  0.875 0.125
c p distribution  0.875 0.125
c p distribution  0.875 0.125
c p distribution  0.875 0.125
c p distribution  0.875 0.125
c p distribution  0.875 0.125
c p distribution  0.875 0.125
c p distribution  0.875 0.125
c p distribution  0.875 0.125
c p distribution  0.875 0.125
c p distribution  0.875 0.125
c p distribution  0.875 0.125
c p distribution  0.875 0.125
c p distribution  0.875 0.125
c p distribution  0.875 0.125
c p distribution  0.875 0.125
c p distribution  0.875 0.125
c p distribution  0.875 0.125
c p distribution  0.875 0.125
c p distribution  0.875 0.125
c p distribution  0.875 0.125
c p distribution  0.875 0.125
c p distribution  0.875 0.125
c p distribution  0.875 0.125
c p distribution  0.875 0.125
c p distribution  0.875 0.125
c p distribution  0.875 0.125
c p distribution  0.875 0.125
c p distribution  0.875 0.125
c p distribution  0.875 0.125
c p distribution  0.875 0.125
c p distribution  0.875 0.125
c p distribution  0.875 0.125
c p distribution  0.875 0.125
c p distribution  0.875 0.125
c p distribution  0.875 0.125
c p distribution  0.875 0.125
c p distribution  0.875 0.125
c p distribution  0.875 0.125
c p distribution  0.875 0.125
c p distribution  0.875 0.125
c p distribution  0.875 0.125
c p distribution  0.875 0.125
c p distribution  0.875 0.125
c p distribution  0.875 0.125
c p distribution  0.875 0.125
c p distribution  0.875 0.125
c p distribution  0.875 0.125
c p distribution  0.875 0.125
c p distribution  0.875 0.125
c p distribution  0.875 0.125
c p distribution  0.875 0.125
c p distribution  0.875 0.125
c p distribution  0.875 0.125
c p distribution  0.875 0.125
c p distribution  0.875 0.125
c p distribution  0.875 0.125
c p distribution  0.875 0.125
c p distribution  0.875 0.125
c p distribution  0.875 0.125
c p distribution  0.875 0.125
c p distribution  0.875 0.125
c p distribution  0.875 0.125
c p distribution  0.875 0.125
c p distribution  0.875 0.125
c p distribution  0.875 0.125
c p distribution  0.875 0.125
c p distribution  0.875 0.125
c p distribution  0.875 0.125
c p distribution  0.875 0.125
c p distribution  0.875 0.125
c p distribution  0.875 0.125
c p distribution  0.875 0.125
c p distribution  0.875 0.125
c p distribution  0.875 0.125
c p distribution  0.875 0.125
c p distribution  0.875 0.125
c p distribution  0.875 0.125
c p distribution  0.875 0.125
c p distribution  0.875 0.125
c p distribution  0.875 0.125
c p distribution  0.875 0.125
c p distribution  0.875 0.125
c p distribution  0.875 0.125
c p distribution  0.875 0.125
c p distribution  0.875 0.125
c p distribution  0.875 0.125
c p distribution  0.875 0.125
c p distribution  0.875 0.125
c p distribution  0.875 0.125
c p distribution  0.875 0.125
c p distribution  0.875 0.125
c p distribution  0.875 0.125
c p distribution  0.875 0.125
c p distribution  0.875 0.125
c p distribution  0.875 0.125
c p distribution  0.875 0.125
c p distribution  0.875 0.125
c p distribution  0.875 0.125
c p distribution  0.875 0.125
c p distribution  0.875 0.125
c p distribution  0.875 0.125
c p distribution  0.875 0.125
c p distribution  0.875 0.125
c p distribution  0.875 0.125
c p distribution  0.875 0.125
c p distribution  0.875 0.125
c p distribution  0.875 0.125
c p distribution  0.875 0.125
c p distribution  0.875 0.125
c p distribution  0.875 0.125
c p distribution  0.875 0.125
c p distribution  0.875 0.125
c p distribution  0.875 0.125
c p distribution  0.875 0.125
c p distribution  0.875 0.125
c p distribution  0.875 0.125
c p distribution  0.875 0.125
c p distribution  0.875 0.125
c p distribution  0.875 0.125
c p distribution  0.875 0.125
c p distribution  0.875 0.125
c p distribution  0.875 0.125
c p distribution  0.875 0.125
c p distribution  0.875 0.125
c p distribution  0.875 0.125
c p distribution  0.875 0.125
c p distribution  0.875 0.125
c p distribution  0.875 0.125
c p distribution  0.875 0.125
c p distribution  0.875 0.125
c p distribution  0.875 0.125
c p distribution  0.875 0.125
c p distribution  0.875 0.125
c p distribution  0.875 0.125
c p distribution  0.875 0.125
c p distribution  0.875 0.125
c p distribution  0.875 0.125
c p distribution  0.875 0.125
c p distribution  0.875 0.125
c p distribution  0.875 0.125
c p distribution  0.875 0.125
c p distribution  0.875 0.125
c p distribution  0.875 0.125
c p distribution  0.875 0.125
c p distribution  0.875 0.125
c p distribution  0.875 0.125
c p distribution  0.875 0.125
c p distribution  0.875 0.125
c p distribution  0.875 0.125
c p distribution  0.875 0.125
c p distribution  0.875 0.125
c p distribution  0.875 0.125
c p distribution  0.875 0.125
c p distribution  0.875 0.125
c p distribution  0.875 0.125
c p distribution  0.875 0.125
c p distribution  0.875 0.125
c p distribution  0.875 0.125
c p distribution  0.875 0.125
c p distribution  0.875 0.125
c p distribution  0.875 0.125
c p distribution  0.875 0.125
c p distribution  0.875 0.125
c p distribution  0.875 0.125
c p distribution  0.875 0.125
c p distribution  0.875 0.125
c p distribution  0.875 0.125
c p distribution  0.875 0.125
c p distribution  0.875 0.125
c p distribution  0.875 0.125
c p distribution  0.875 0.125
c p distribution  0.875 0.125
c p distribution  0.875 0.125
c p distribution  0.875 0.125
c p distribution  0.875 0.125
c p distribution  0.875 0.125
c p distribution  0.875 0.125
c p distribution  0.875 0.125
c p distribution  0.875 0.125
c p distribution  0.875 0.125
c p distribution  0.875 0.125
c p distribution  0.875 0.125
c p distribution  0.875 0.125
c p distribution  0.875 0.125
c p distribution  0.875 0.125
c p distribution  0.875 0.125
c p distribution  0.875 0.125
c p distribution  0.875 0.125
c p distribution  0.875 0.125
c p distribution  0.875 0.125
c p distribution  0.875 0.125
c p distribution  0.875 0.125
c p distribution  0.875 0.125
556 0
-518 0
511 -465 -1 0
465 -511 -1 0
606 -484 -3 0
484 -606 -3 0
601 -512 -5 0
512 -601 -5 0
470 -554 -7 0
554 -470 -7 0
561 -501 -9 0
501 -561 -9 0
500 -565 -11 0
565 -500 -11 0
585 -559 -13 0
559 -585 -13 0
499 -535 -15 0
535 -499 -15 0
588 -528 -17 0
528 -588 -17 0
503 -489 -19 0
489 -503 -19 0
556 -473 -21 0
473 -556 -21 0
477 -535 -23 0
535 -477 -23 0
547 -527 -25 0
527 -547 -25 0
476 -575 -27 0
575 -476 -27 0
536 -486 -29 0
486 -536 -29 0
454 -525 -31 0
525 -454 -31 0
457 -573 -33 0
573 -457 -33 0
491 -609 -35 0
609 -491 -35 0
509 -608 -37 0
608 -509 -37 0
591 -466 -39 0
466 -591 -39 0
475 -451 -41 0
451 -475 -41 0
497 -529 -43 0
529 -497 -43 0
583 -604 -45 0
604 -583 -45 0
589 -600 -47 0
600 -589 -47 0
496 -604 -49 0
604 -496 -49 0
586 -474 -51 0
474 -586 -51 0
553 -459 -53 0
459 -553 -53 0
521 -512 -55 0
512 -521 -55 0
530 -574 -57 0
574 -530 -57 0
452 -538 -59 0
538 -452 -59 0
498 -501 -61 0
501 -498 -61 0
576 -556 -63 0
556 -576 -63 0
504 -463 -65 0
463 -504 -65 0
487 -504 -67 0
504 -487 -67 0
509 -558 -69 0
558 -509 -69 0
496 -591 -71 0
591 -496 -71 0
577 -469 -73 0
469 -577 -73 0
502 -611 -75 0
611 -502 -75 0
454 -551 -77 0
551 -454 -77 0
522 -552 -79 0
552 -522 -79 0
512 -547 -81 0
547 -512 -81 0
486 -545 -83 0
545 -486 -83 0
607 -509 -85 0
509 -607 -85 0
557 -504 -87 0
504 -557 -87 0
503 -597 -89 0
597 -503 -89 0
504 -463 -91 0
463 -504 -91 0
495 -478 -93 0
478 -495 -93 0
577 -469 -95 0
469 -577 -95 0
457 -596 -97 0
596 -457 -97 0
585 -601 -99 0
601 -585 -99 0
479 -517 -101 0
517 -479 -101 0
588 -537 -103 0
537 -588 -103 0
574 -516 -105 0
516 -574 -105 0
485 -543 -107 0
543 -485 -107 0
502 -604 -109 0
604 -502 -109 0
483 -533 -111 0
533 -483 -111 0
603 -584 -113 0
584 -603 -113 0
520 -594 -115 0
594 -520 -115 0
532 -579 -117 0
579 -532 -117 0
572 -494 -119 0
494 -572 -119 0
511 -489 -121 0
489 -511 -121 0
530 -562 -123 0
562 -530 -123 0
569 -611 -125 0
611 -569 -125 0
589 -573 -127 0
573 -589 -127 0
472 -478 -129 0
478 -472 -129 0
609 -454 -131 0
454 -609 -131 0
458 -590 -133 0
590 -458 -133 0
474 -495 -135 0
495 -474 -135 0
576 -542 -137 0
542 -576 -137 0
548 -595 -139 0
595 -548 -139 0
587 -609 -141 0
609 -587 -141 0
470 -572 -143 0
572 -470 -143 0
519 -504 -145 0
504 -519 -145 0
501 -596 -147 0
596 -501 -147 0
455 -499 -149 0
499 -455 -149 0
556 -514 -151 0
514 -556 -151 0
523 -565 -153 0
565 -523 -153 0
539 -532 -155 0
532 -539 -155 0
608 -555 -157 0
555 -608 -157 0
469 -520 -159 0
520 -469 -159 0
516 -497 -161 0
497 -516 -161 0
531 -522 -163 0
522 -531 -163 0
490 -610 -165 0
610 -490 -165 0
488 -495 -167 0
495 -488 -167 0
509 -558 -169 0
558 -509 -169 0
476 -593 -171 0
593 -476 -171 0
526 -578 -173 0
578 -526 -173 0
459 -502 -175 0
502 -459 -175 0
556 -494 -177 0
494 -556 -177 0
481 -585 -179 0
585 -481 -179 0
577 -595 -181 0
595 -577 -181 0
602 -581 -183 0
581 -602 -183 0
584 -475 -185 0
475 -584 -185 0
605 -562 -187 0
562 -605 -187 0
496 -597 -189 0
597 -496 -189 0
488 -472 -191 0
472 -488 -191 0
496 -493 -193 0
493 -496 -193 0
470 -572 -195 0
572 -470 -195 0
530 -497 -197 0
497 -530 -197 0
511 -465 -199 0
465 -511 -199 0
489 -541 -201 0
541 -489 -201 0
603 -523 -203 0
523 -603 -203 0
511 -465 -205 0
465 -511 -205 0
458 -505 -207 0
505 -458 -207 0
604 -518 -209 0
518 -604 -209 0
556 -480 -211 0
480 -556 -211 0
546 -571 -213 0
571 -546 -213 0
520 -548 -215 0
548 -520 -215 0
451 -506 -217 0
506 -451 -217 0
540 -520 -219 0
520 -540 -219 0
486 -478 -221 0
478 -486 -221 0
470 -569 -223 0
569 -470 -223 0
529 -570 -225 0
570 -529 -225 0
520 -461 -227 0
461 -520 -227 0
517 -508 -229 0
508 -517 -229 0
511 -465 -231 0
465 -511 -231 0
541 -544 -233 0
544 -541 -233 0
550 -455 -235 0
455 -550 -235 0
543 -468 -237 0
468 -543 -237 0
485 -599 -239 0
599 -485 -239 0
492 -490 -241 0
490 -492 -241 0
569 -576 -243 0
576 -569 -243 0
603 -505 -245 0
505 -603 -245 0
563 -531 -247 0
531 -563 -247 0
583 -490 -249 0
490 -583 -249 0
519 -604 -251 0
604 -519 -251 0
523 -544 -253 0
544 -523 -253 0
484 -482 -255 0
482 -484 -255 0
546 -534 -257 0
534 -546 -257 0
528 -564 -259 0
564 -528 -259 0
552 -488 -261 0
488 -552 -261 0
549 -534 -263 0
534 -549 -263 0
475 -537 -265 0
537 -475 -265 0
549 -536 -267 0
536 -549 -267 0
513 -508 -269 0
508 -513 -269 0
476 -593 -271 0
593 -476 -271 0
552 -480 -273 0
480 -552 -273 0
511 -541 -275 0
541 -511 -275 0
546 -549 -277 0
549 -546 -277 0
520 -460 -279 0
460 -520 -279 0
568 -455 -281 0
455 -568 -281 0
585 -602 -283 0
602 -585 -283 0
608 -456 -285 0
456 -608 -285 0
536 -571 -287 0
571 -536 -287 0
560 -519 -289 0
519 -560 -289 0
580 -485 -291 0
485 -580 -291 0
457 -573 -293 0
573 -457 -293 0
511 -465 -295 0
465 -511 -295 0
608 -558 -297 0
558 -608 -297 0
474 -586 -299 0
586 -474 -299 0
524 -578 -301 0
578 -524 -301 0
556 -510 -303 0
510 -556 -303 0
593 -559 -305 0
559 -593 -305 0
496 -580 -307 0
580 -496 -307 0
545 -534 -309 0
534 -545 -309 0
521 -539 -311 0
539 -521 -311 0
556 -608 -313 0
608 -556 -313 0
608 -461 -315 0
461 -608 -315 0
528 -610 -317 0
610 -528 -317 0
598 -518 -319 0
518 -598 -319 0
539 -473 -321 0
473 -539 -321 0
571 -545 -323 0
545 -571 -323 0
462 -519 -325 0
519 -462 -325 0
557 -604 -327 0
604 -557 -327 0
567 -582 -329 0
582 -567 -329 0
525 -608 -331 0
608 -525 -331 0
543 -596 -333 0
596 -543 -333 0
566 -532 -335 0
532 -566 -335 0
470 -466 -337 0
466 -470 -337 0
519 -515 -339 0
515 -519 -339 0
584 -565 -341 0
565 -584 -341 0
462 -504 -343 0
504 -462 -343 0
453 -535 -345 0
535 -453 -345 0
471 -527 -347 0
527 -471 -347 0
606 -607 -349 0
607 -606 -349 0
494 -514 -351 0
514 -494 -351 0
531 -525 -353 0
525 -531 -353 0
570 -612 -355 0
612 -570 -355 0
566 -514 -357 0
514 -566 -357 0
464 -538 -359 0
538 -464 -359 0
451 -588 -361 0
588 -451 -361 0
581 -575 -363 0
575 -581 -363 0
457 -520 -365 0
520 -457 -365 0
556 -480 -367 0
480 -556 -367 0
500 -584 -369 0
584 -500 -369 0
509 -608 -371 0
608 -509 -371 0
586 -495 -373 0
495 -586 -373 0
520 -561 -375 0
561 -520 -375 0
462 -515 -377 0
515 -462 -377 0
590 -535 -379 0
535 -590 -379 0
533 -562 -381 0
562 -533 -381 0
548 -595 -383 0
595 -548 -383 0
496 -506 -385 0
506 -496 -385 0
592 -458 -387 0
458 -592 -387 0
601 -547 -389 0
547 -601 -389 0
605 -513 -391 0
513 -605 -391 0
520 -526 -393 0
526 -520 -393 0
520 -594 -395 0
594 -520 -395 0
534 -495 -397 0
495 -534 -397 0
508 -507 -399 0
507 -508 -399 0
594 -610 -401 0
610 -594 -401 0
456 -578 -403 0
578 -456 -403 0
517 -507 -405 0
507 -517 -405 0
591 -580 -407 0
580 -591 -407 0
607 -608 -409 0
608 -607 -409 0
499 -538 -411 0
538 -499 -411 0
529 -574 -413 0
574 -529 -413 0
511 -575 -415 0
575 -511 -415 0
555 -472 -417 0
472 -555 -417 0
590 -505 -419 0
505 -590 -419 0
503 -597 -421 0
597 -503 -421 0
585 -602 -423 0
602 -585 -423 0
460 -596 -425 0
596 -460 -425 0
493 -518 -427 0
518 -493 -427 0
492 -471 -429 0
471 -492 -429 0
456 -526 -431 0
526 -456 -431 0
608 -555 -433 0
555 -608 -433 0
506 -544 -435 0
544 -506 -435 0
563 -459 -437 0
459 -563 -437 0
559 -481 -439 0
481 -559 -439 0
481 -498 -441 0
498 -481 -441 0
556 -461 -443 0
461 -556 -443 0
567 -600 -445 0
600 -567 -445 0
521 -468 -447 0
468 -521 -447 0
560 -612 -449 0
612 -560 -449 0

